100
32
19
5
10
4
28
18
5
8
28
6
18
5
17
2
5
1
3
1
1
4
17
3
5
1
3
2
2
2
17
2
3
3
1
2
1
1
1
1
1
19
4
3
1
1
3
1
1
4
18
1
1
5
1
3
17
3
2
17
17
1
3
1
1
1
3
3
2
2
2
2
1
1
1
11
1
2
17
1
1
4
1
4
1
17
2
2
1
1
2
3
2
1
2
1
2
22
1
1
1
1